c File: flat50_3_0.col
c
c SOURCE: Joseph Culberson (joe@cs.ualberta.ca)
c DESCRIPTION: Quasi-random coloring problem
c              generated with flatness = 0
c                             probability = 0.139
c                             known coloring = 3
c                             random seed = 1518
c              Creation Date:  Tue Jun  9 12:11:16 1998
c Maximum degree = 7 Minimum degree = 1
c p edge 50 115
c cnf created by edge2cnf
p cnf 150 545
-1 -2 0
-1 -3 0
-2 -3 0
1 2 3 0
-4 -5 0
-4 -6 0
-5 -6 0
4 5 6 0
-7 -8 0
-7 -9 0
-8 -9 0
7 8 9 0
-10 -11 0
-10 -12 0
-11 -12 0
10 11 12 0
-13 -14 0
-13 -15 0
-14 -15 0
13 14 15 0
-16 -17 0
-16 -18 0
-17 -18 0
16 17 18 0
-19 -20 0
-19 -21 0
-20 -21 0
19 20 21 0
-22 -23 0
-22 -24 0
-23 -24 0
22 23 24 0
-25 -26 0
-25 -27 0
-26 -27 0
25 26 27 0
-28 -29 0
-28 -30 0
-29 -30 0
28 29 30 0
-31 -32 0
-31 -33 0
-32 -33 0
31 32 33 0
-34 -35 0
-34 -36 0
-35 -36 0
34 35 36 0
-37 -38 0
-37 -39 0
-38 -39 0
37 38 39 0
-40 -41 0
-40 -42 0
-41 -42 0
40 41 42 0
-43 -44 0
-43 -45 0
-44 -45 0
43 44 45 0
-46 -47 0
-46 -48 0
-47 -48 0
46 47 48 0
-49 -50 0
-49 -51 0
-50 -51 0
49 50 51 0
-52 -53 0
-52 -54 0
-53 -54 0
52 53 54 0
-55 -56 0
-55 -57 0
-56 -57 0
55 56 57 0
-58 -59 0
-58 -60 0
-59 -60 0
58 59 60 0
-61 -62 0
-61 -63 0
-62 -63 0
61 62 63 0
-64 -65 0
-64 -66 0
-65 -66 0
64 65 66 0
-67 -68 0
-67 -69 0
-68 -69 0
67 68 69 0
-70 -71 0
-70 -72 0
-71 -72 0
70 71 72 0
-73 -74 0
-73 -75 0
-74 -75 0
73 74 75 0
-76 -77 0
-76 -78 0
-77 -78 0
76 77 78 0
-79 -80 0
-79 -81 0
-80 -81 0
79 80 81 0
-82 -83 0
-82 -84 0
-83 -84 0
82 83 84 0
-85 -86 0
-85 -87 0
-86 -87 0
85 86 87 0
-88 -89 0
-88 -90 0
-89 -90 0
88 89 90 0
-91 -92 0
-91 -93 0
-92 -93 0
91 92 93 0
-94 -95 0
-94 -96 0
-95 -96 0
94 95 96 0
-97 -98 0
-97 -99 0
-98 -99 0
97 98 99 0
-100 -101 0
-100 -102 0
-101 -102 0
100 101 102 0
-103 -104 0
-103 -105 0
-104 -105 0
103 104 105 0
-106 -107 0
-106 -108 0
-107 -108 0
106 107 108 0
-109 -110 0
-109 -111 0
-110 -111 0
109 110 111 0
-112 -113 0
-112 -114 0
-113 -114 0
112 113 114 0
-115 -116 0
-115 -117 0
-116 -117 0
115 116 117 0
-118 -119 0
-118 -120 0
-119 -120 0
118 119 120 0
-121 -122 0
-121 -123 0
-122 -123 0
121 122 123 0
-124 -125 0
-124 -126 0
-125 -126 0
124 125 126 0
-127 -128 0
-127 -129 0
-128 -129 0
127 128 129 0
-130 -131 0
-130 -132 0
-131 -132 0
130 131 132 0
-133 -134 0
-133 -135 0
-134 -135 0
133 134 135 0
-136 -137 0
-136 -138 0
-137 -138 0
136 137 138 0
-139 -140 0
-139 -141 0
-140 -141 0
139 140 141 0
-142 -143 0
-142 -144 0
-143 -144 0
142 143 144 0
-145 -146 0
-145 -147 0
-146 -147 0
145 146 147 0
-148 -149 0
-148 -150 0
-149 -150 0
148 149 150 0
-88 -1 0
-89 -2 0
-90 -3 0
-121 -1 0
-122 -2 0
-123 -3 0
-130 -1 0
-131 -2 0
-132 -3 0
-148 -1 0
-149 -2 0
-150 -3 0
-55 -4 0
-56 -5 0
-57 -6 0
-70 -4 0
-71 -5 0
-72 -6 0
-79 -4 0
-80 -5 0
-81 -6 0
-82 -4 0
-83 -5 0
-84 -6 0
-103 -4 0
-104 -5 0
-105 -6 0
-118 -4 0
-119 -5 0
-120 -6 0
-67 -7 0
-68 -8 0
-69 -9 0
-85 -7 0
-86 -8 0
-87 -9 0
-94 -7 0
-95 -8 0
-96 -9 0
-97 -7 0
-98 -8 0
-99 -9 0
-130 -7 0
-131 -8 0
-132 -9 0
-61 -10 0
-62 -11 0
-63 -12 0
-94 -10 0
-95 -11 0
-96 -12 0
-115 -10 0
-116 -11 0
-117 -12 0
-127 -10 0
-128 -11 0
-129 -12 0
-61 -13 0
-62 -14 0
-63 -15 0
-64 -13 0
-65 -14 0
-66 -15 0
-88 -13 0
-89 -14 0
-90 -15 0
-124 -13 0
-125 -14 0
-126 -15 0
-145 -13 0
-146 -14 0
-147 -15 0
-76 -16 0
-77 -17 0
-78 -18 0
-112 -16 0
-113 -17 0
-114 -18 0
-124 -16 0
-125 -17 0
-126 -18 0
-70 -19 0
-71 -20 0
-72 -21 0
-136 -19 0
-137 -20 0
-138 -21 0
-148 -19 0
-149 -20 0
-150 -21 0
-52 -22 0
-53 -23 0
-54 -24 0
-70 -22 0
-71 -23 0
-72 -24 0
-91 -22 0
-92 -23 0
-93 -24 0
-94 -22 0
-95 -23 0
-96 -24 0
-115 -22 0
-116 -23 0
-117 -24 0
-121 -22 0
-122 -23 0
-123 -24 0
-82 -25 0
-83 -26 0
-84 -27 0
-88 -25 0
-89 -26 0
-90 -27 0
-103 -25 0
-104 -26 0
-105 -27 0
-106 -25 0
-107 -26 0
-108 -27 0
-142 -25 0
-143 -26 0
-144 -27 0
-58 -28 0
-59 -29 0
-60 -30 0
-67 -28 0
-68 -29 0
-69 -30 0
-103 -28 0
-104 -29 0
-105 -30 0
-112 -28 0
-113 -29 0
-114 -30 0
-127 -28 0
-128 -29 0
-129 -30 0
-145 -28 0
-146 -29 0
-147 -30 0
-64 -31 0
-65 -32 0
-66 -33 0
-85 -31 0
-86 -32 0
-87 -33 0
-112 -31 0
-113 -32 0
-114 -33 0
-115 -31 0
-116 -32 0
-117 -33 0
-133 -31 0
-134 -32 0
-135 -33 0
-139 -31 0
-140 -32 0
-141 -33 0
-55 -34 0
-56 -35 0
-57 -36 0
-58 -34 0
-59 -35 0
-60 -36 0
-82 -34 0
-83 -35 0
-84 -36 0
-127 -34 0
-128 -35 0
-129 -36 0
-52 -37 0
-53 -38 0
-54 -39 0
-91 -37 0
-92 -38 0
-93 -39 0
-94 -37 0
-95 -38 0
-96 -39 0
-124 -37 0
-125 -38 0
-126 -39 0
-130 -37 0
-131 -38 0
-132 -39 0
-73 -40 0
-74 -41 0
-75 -42 0
-79 -40 0
-80 -41 0
-81 -42 0
-115 -40 0
-116 -41 0
-117 -42 0
-127 -40 0
-128 -41 0
-129 -42 0
-142 -40 0
-143 -41 0
-144 -42 0
-148 -40 0
-149 -41 0
-150 -42 0
-82 -43 0
-83 -44 0
-84 -45 0
-91 -43 0
-92 -44 0
-93 -45 0
-55 -46 0
-56 -47 0
-57 -48 0
-97 -46 0
-98 -47 0
-99 -48 0
-100 -46 0
-101 -47 0
-102 -48 0
-118 -46 0
-119 -47 0
-120 -48 0
-52 -49 0
-53 -50 0
-54 -51 0
-142 -49 0
-143 -50 0
-144 -51 0
-148 -49 0
-149 -50 0
-150 -51 0
-109 -52 0
-110 -53 0
-111 -54 0
-124 -52 0
-125 -53 0
-126 -54 0
-130 -52 0
-131 -53 0
-132 -54 0
-124 -55 0
-125 -56 0
-126 -57 0
-127 -55 0
-128 -56 0
-129 -57 0
-145 -58 0
-146 -59 0
-147 -60 0
-103 -61 0
-104 -62 0
-105 -63 0
-109 -61 0
-110 -62 0
-111 -63 0
-115 -61 0
-116 -62 0
-117 -63 0
-130 -61 0
-131 -62 0
-132 -63 0
-112 -64 0
-113 -65 0
-114 -66 0
-121 -64 0
-122 -65 0
-123 -66 0
-121 -67 0
-122 -68 0
-123 -69 0
-136 -67 0
-137 -68 0
-138 -69 0
-148 -67 0
-149 -68 0
-150 -69 0
-106 -73 0
-107 -74 0
-108 -75 0
-118 -73 0
-119 -74 0
-120 -75 0
-121 -73 0
-122 -74 0
-123 -75 0
-148 -73 0
-149 -74 0
-150 -75 0
-106 -76 0
-107 -77 0
-108 -78 0
-115 -76 0
-116 -77 0
-117 -78 0
-103 -79 0
-104 -80 0
-105 -81 0
-130 -79 0
-131 -80 0
-132 -81 0
-133 -79 0
-134 -80 0
-135 -81 0
-112 -82 0
-113 -83 0
-114 -84 0
-127 -82 0
-128 -83 0
-129 -84 0
-106 -85 0
-107 -86 0
-108 -87 0
-136 -85 0
-137 -86 0
-138 -87 0
-109 -88 0
-110 -89 0
-111 -90 0
-130 -88 0
-131 -89 0
-132 -90 0
-133 -91 0
-134 -92 0
-135 -93 0
-136 -91 0
-137 -92 0
-138 -93 0
-145 -91 0
-146 -92 0
-147 -93 0
-115 -97 0
-116 -98 0
-117 -99 0
-118 -97 0
-119 -98 0
-120 -99 0
-124 -97 0
-125 -98 0
-126 -99 0
-136 -97 0
-137 -98 0
-138 -99 0
-121 -100 0
-122 -101 0
-123 -102 0
